p tw 20 53
0 1
0 5
0 8
0 13
0 19
1 8
1 3
1 7
1 6
2 3
2 11
2 18
2 16
2 7
2 5
3 17
3 8
4 5
4 17
4 15
5 13
5 16
6 7
6 8
6 18
6 10
6 17
6 13
7 11
7 12
7 19
7 13
7 9
8 15
8 10
8 11
8 12
9 10
9 12
10 14
11 18
11 13
12 13
12 16
13 15
14 17
14 16
15 16
15 18
16 18
16 17
17 18
17 19
